39
365
2
30,85,94,10,35,82,89,72,83,33,41,43,58,77,54,84,76,35,95,4,44,44,45,3,5,90,70,51,23,76,41,93,16,84,9,19,44,22,50
70,79,52,79,97,62,11,14,50,43,49,7,77,55,21,19,11,30,66,88,31,2,94,9,44,26,93,24,66,54,69,68,59,14,92,62,57,25,76
2,1,1,1,1,1,2,1,2,1,2,2,1,1,2,2,2,2,2,1,1,2,2,1,1,1,2,2,2,2,1,1,1,2,1,2,1,1,1
